100
32
28
6
24
23
6
7
21
32
32
2
1
27
19
11
17
11
8
13
28
12
8
14
17
11
26
18
31
12
8
31
26
7
25
12
19
29
17
26
31
25
11
24
12
30
3
22
12
26
29
30
27
14
17
14
15
29
22
26
22
12
19
26
17
24
13
24
28
17
26
28
25
15
17
18
13
19
30
6
25
8
24
26
9
8
10
29
29
17
31
6
6
3
18
23
32
17
22
4
5
10